100
128
32
38
62
33
57
14
60
50
46
62
40
45
42
5
43
51
32
24
33
6
8
35
51
25
23
19
13
31
29
5
35
34
54
1
19
15
24
13
1
54
17
18
44
64
2
51
47
47
64
23
38
56
17
40
47
42
21
3
5
53
26
22
3
14
13
20
23
39
57
5
17
40
47
29
30
4
43
59
43
59
14
53
24
49
3
26
28
32
15
22
5
40
46
35
21
27
47
24
5
38